10J3M/DAT/10J3MULL-9.dat
10 3
12.8321 12.8321
25.9679 25.9679
0.0661 0.0661
25.6613 25.6613
7.4478 7.4478
4.3581 4.3581
26.9599 26.9599
39.0433 39.0433
9.5764 9.5764
21.7498 21.7498
57.8876