10J3M/SOL/10J3MULL-9.sol
solution status: optimal solution found
objective value:                     57.8875666666667
x#1#3                                               1 	(obj:0)
x#2#2                               0.904188119434635 	(obj:0)
x#2#3                              0.0958118805653649 	(obj:0)
x#3#1                                               1 	(obj:0)
x#4#3                                               1 	(obj:0)
x#5#2                                               1 	(obj:0)
x#6#3                                               1 	(obj:0)
x#7#2                                               1 	(obj:0)
x#8#1                                               1 	(obj:0)
x#9#1                                               1 	(obj:0)
x#10#1                              0.423073622132924 	(obj:0)
x#10#3                              0.576926377867076 	(obj:0)
z                                    57.8875666666667 	(obj:1)
